145
1000000
144647
115785
88399
407436
141496
28284
129316
478316
12901
432589
216695
7392
496274
12877
487922
229886
322151
151679
346676
10855
96896
314
238614
30949
129500
460696
77833
112163
456457
488495
138466
203625
487465
109271
132198
265389
245846
451098
259068
381785
173690
186124
302012
139975
381556
53218
47624
96230
426063
83273
154589
15892
449964
216354
199439
160426
308182
305543
58707
14616
443276
145781
249706
61389
41008
340084
148800
33401
38213
470909
10061
408399
19622
171857
406252
339263
258368
465685
377994
82348
40610
20095
59066
139199
134519
13403
13958
276655
77152
71731
390701
96433
42889
188008
208797
422574
133052
167955
119985
261512
113547
483526
134709
444634
181737
75052
3360
133109
178596
307928
180916
144544
370600
450256
498120
401321
9014
183354
111214
365686
201582
181585
10978
224213
253849
400839
121811
272691
345976
217091
129370
52698
346006
60743
134234
460571
156759
104345
235837
214431
16480
327796
431707
135144
150
